// note: this matches the optimal solution found on pg 192 in Chvatal


Value of objective function: 157066.66666667

Actual values of the variables:
y1                              0
z1                              0
t1                          10500
y2                              0
z2                              0
t2                           4200
y3                              0
z3                              0
t3                          14700
y4                              0
z4                        1216.67
t4                           8050
y5                              0
z5                        1133.33
t5                              0
y6                              0
z6                           1150
t6                          12000
y7                              0
z7                        766.667
t7                          12000
y8                              0
z8                        83.3333
t8                          12000
y9                              0
z9                              0
t9                          12000
y10                       583.333
z10                             0
t10                             0
y11                           400
z11                             0
t11                           350
y12                             0
z12                             0
t12                         16800
x1                           5300
x0                           5800
x2                           5100
x3                           4400
x4                        4016.67
x5                        4016.67
x6                        4816.67
x7                        5616.67
x8                        6416.67
x9                        7216.67
x10                       7216.67
x11                          7200
x12                          6400
z0                              0
d1                           5300
d2                           5100
d3                           4400
d4                           2800
d5                           4100
d6                           4800
d7                           6000
d8                           7100
d9                           7300
d10                          7800
d11                          7600
d12                          6400
